<number of tasks>
50

<cycle time>
1000

<order strength>
0.201


<task times>
1 279
2 22
3 58
4 237
5 208
6 26
7 136
8 92
9 204
10 21
11 67
12 188
13 233
14 152
15 72
16 216
17 122
18 217
19 193
20 74
21 26
22 235
23 57
24 51
25 88
26 109
27 190
28 134
29 132
30 221
31 147
32 333
33 143
34 89
35 303
36 63
37 253
38 69
39 48
40 90
41 65
42 100
43 67
44 303
45 46
46 236
47 280
48 46
49 197
50 129

<precedence relations>
1,11
2,8
2,9
3,25
4,13
5,12
6,10
7,44
8,35
9,15
9,18
10,16
10,19
10,20
10,21
11,14
12,17
13,20
13,45
15,22
15,36
18,24
19,23
20,22
20,27
24,25
24,26
24,27
25,29
25,44
26,28
26,31
26,32
27,30
27,33
27,34
29,37
29,40
30,38
31,41
32,35
32,36
32,39
34,48
35,48
38,44
38,47
39,42
39,45
39,46
39,49
40,43
40,50

<end>
